db/data/23600470722719653322731067323456476.z3.out
-------------------
2500.176575322
